61
120
96	1
95	1
93	1
91	2
90	1
89	1
88	2
87	1
86	1
83	1
82	2
81	3
79	1
78	3
77	2
76	3
75	1
73	1
72	1
71	1
69	3
67	1
66	1
64	2
63	1
62	2
61	3
60	1
58	2
57	1
56	1
54	2
53	3
51	1
48	1
47	2
46	3
45	3
44	2
43	1
42	1
41	1
40	1
39	1
37	2
33	1
32	1
31	2
30	1
29	3
28	2
27	2
26	4
25	1
24	1
21	1
20	1
18	2
17	3
13	2
12	1
